50
    1   440   497
    2   422   402
    3   520   500
    4   560   569
    5    52    22
    6   239   231
    7   316   367
    8   291   289
    9   388   367
   10   204   152
   11   195   149
   12   389   417
   13   364   358
   14     8    26
   15   517   470
   16   119    82
   17   483   535
   18   177   198
   19   411   411
   20   484   428
   21    29    55
   22   541   565
   23   260   318
   24    59    36
   25   351   358
   26   502   494
   27   514   460
   28   562   517
   29   307   311
   30   564   509
   31   382   339
   32   469   449
   33   284   237
   34   567   555
   35    53   102
   36   507   519
   37   548   526
   38    69    26
   39   538   502
   40   513   468
   41     1     1
   42   656   599
   43    80    40
   44   407   443
   45   562   505
   46    84    88
   47   527   539
   48   317   335
   49   101   161
   50   278   230
601
